(set-logic BV) (define-fun origCir ((n219 Bool) (n325 Bool) (n254 Bool) (n207 Bool) (i58 Bool)) Bool (xor (and (xor n325 (not (and n254 n207))) n219) i58)) (synth-fun skel ((n219 Bool) (n325 Bool) (n254 Bool) (n207 Bool) (i58 Bool)) Bool) (declare-var n219 Bool) (declare-var n325 Bool) (declare-var n254 Bool) (declare-var n207 Bool) (declare-var i58 Bool) (constraint (= (origCir n219 n325 n254 n207 i58) (skel n219 n325 n254 n207 i58))) (check-synth)
